
&CONTROL
 calculation = 'vc-relax',
    restart_mode = 'from_scratch',
    title = 'NbN',
    prefix = 'NbN',
    outdir = './tmp_12/',
    pseudo_dir = '.',
    forc_conv_thr = 1.0D-3,
    tprnfor = .true.,
    tstress = .true.
    verbosity = 'high'
    wf_collect = .true., nstep=200
/

&SYSTEM
  ibrav=0,
  celldm(1)=4.6509939378d0,
  nat=4,
  ntyp=1,
  ecutwfc = 40,
  ecutrho = 400,
  occupations='smearing',
  smearing='fd'
  degauss=0.005d0,

/

&ELECTRONS
 mixing_mode = 'plain'
    mixing_beta = 0.4,
    conv_thr = 1.0D-9
/
 &ions
 /
  
 &cell
cell_dofree = '2Dxy' 
/

ATOMIC_SPECIES
C 12.010700d0   C.pw91-van_ak.UPF


ATOMIC_POSITIONS {crystal}
  C        0.688083817   0.906222512   0.012437382    0   1   1
C        0.686813379   0.594808690   0.012465525    0   1   1
C        0.311948744   0.406126285   0.012539834    0   1   1
C        0.313157681   0.094719335   0.012500843    0   1   1

K_POINTS {automatic}
  20 12 1 0 0 0

CELL_PARAMETERS {alat}
  1.046367022  -0.000017805   0.000000000
  -0.000061305   1.820791419   0.000000000
   0.000000000   0.000000000   7.987252345

