
&CONTROL
 calculation = 'relax',
    restart_mode = 'from_scratch',
    title = 'NbN',
    prefix = 'NbN',
    outdir = './tmp_20/',
    pseudo_dir = '.',
    forc_conv_thr = 1.0D-3,
    tprnfor = .true.,
    tstress = .true.
    verbosity = 'high'
    wf_collect = .true.
/

&SYSTEM
  ibrav=0,
  celldm(1)=5.86412891051,
  nat=4,
  ntyp=2,
  ecutwfc = 40,
  ecutrho = 400,
  occupations='smearing',
  smearing='fd'
  degauss=0.005d0,

/

&ELECTRONS
 mixing_mode = 'plain'
    mixing_beta = 0.4,
    conv_thr = 1.0D-9
/
 &ions
 /
  
 &cell
cell_dofree = '2Dxy' 
/

ATOMIC_SPECIES
 Nb 92.906  Nb.pw91-nsp-van.UPF
 N  14.007  N.pw91-van_ak.UPF

ATOMIC_POSITIONS (angstrom)
Nb       0.780977255  -7.532128373  -0.118191631    0   1   1
N        0.769670361  -5.904019638   1.152812681    0   1   1
Nb       2.322186005  -4.848990644   0.614956528    0   1   1
N        2.333493141  -3.214207908  -0.650705947    0   1   1

K_POINTS {automatic}
  20 12 1 0 0 0

CELL_PARAMETERS {alat}
  1.000000000000d0  0.000000000000d0  0.000000000000d0
  0.000000000000d0  -1.732050807568d0  0.000000000000d0
  0.000000000000d0  0.000000000000d0  5.308147554844d0

